job_count = 45 ;
duration = [|20, 19, 12, 13, 18, 16, 3, 3, 7|4, 12, 15, 2, 8, 15, 3, 10, 14|23, 18, 4, 14, 12, 6, 15, 7, 7|8, 2, 17, 10, 2, 9, 4, 2, 5|10, 16, 20, 8, 15, 2, 11, 8, 8|10, 5, 3, 11, 11, 17, 2, 6, 7|17, 23, 10, 9, 18, 17, 10, 10, 7|17, 15, 11, 9, 7, 17, 14, 14, 11|15, 2, 3, 15, 11, 15, 10, 7, 14|17, 3, 21, 3, 8, 8, 16, 15, 2|5, 13, 15, 10, 3, 5, 8, 15, 5|16, 15, 18, 19, 15, 2, 13, 8, 14|18, 18, 19, 8, 19, 6, 4, 6, 12|16, 20, 12, 11, 12, 15, 11, 7, 3|24, 2, 16, 8, 5, 8, 14, 12, 14|13, 14, 5, 8, 12, 11, 13, 15, 11|3, 4, 10, 5, 10, 5, 6, 15, 9|9, 22, 20, 18, 15, 9, 15, 7, 8|23, 6, 10, 19, 18, 14, 13, 13, 2|24, 20, 7, 12, 13, 15, 2, 4, 9|7, 6, 11, 13, 8, 4, 9, 2, 13|20, 18, 6, 7, 10, 10, 17, 3, 12|6, 2, 15, 10, 16, 4, 14, 5, 9|16, 17, 11, 9, 3, 15, 11, 13, 7|12, 16, 15, 13, 2, 10, 5, 5, 3|21, 23, 20, 15, 7, 3, 9, 5, 14|23, 17, 8, 10, 3, 8, 4, 13, 5|22, 22, 12, 17, 4, 6, 6, 11, 6|8, 18, 14, 13, 8, 11, 11, 15, 3|12, 18, 17, 17, 11, 8, 16, 2, 6|10, 19, 10, 12, 15, 10, 5, 4, 7|19, 9, 8, 11, 11, 3, 5, 5, 14|7, 7, 14, 4, 18, 14, 7, 7, 3|4, 18, 4, 9, 3, 3, 12, 6, 13|10, 2, 19, 11, 17, 15, 2, 14, 8|17, 4, 5, 3, 4, 12, 7, 4, 3|22, 10, 13, 20, 13, 9, 13, 12, 11|6, 5, 21, 19, 8, 16, 9, 7, 13|11, 3, 16, 15, 5, 2, 2, 15, 8|9, 9, 15, 8, 11, 16, 15, 6, 13|15, 12, 13, 9, 11, 15, 9, 15, 2|5, 19, 13, 8, 3, 4, 15, 6, 5|10, 18, 22, 7, 12, 18, 8, 4, 13|16, 14, 20, 7, 9, 5, 15, 9, 5|24, 10, 19, 6, 14, 7, 16, 12, 3|] ;
machine_count = 9 ;
cost = [|30, 32, 37, 23, 34, 32, 38, 31, 45|29, 32, 34, 36, 41, 24, 40, 28, 30|22, 24, 28, 25, 38, 28, 38, 48, 51|16, 28, 20, 28, 37, 42, 38, 45, 43|16, 28, 23, 22, 27, 36, 40, 46, 41|22, 24, 37, 30, 28, 25, 35, 39, 39|29, 21, 19, 26, 42, 38, 35, 49, 40|27, 17, 26, 30, 42, 44, 33, 47, 41|28, 23, 34, 33, 37, 39, 24, 42, 35|23, 23, 19, 37, 31, 41, 42, 40, 40|21, 27, 34, 27, 36, 34, 34, 42, 36|26, 22, 19, 23, 25, 44, 34, 40, 31|20, 27, 25, 27, 32, 45, 38, 51, 35|18, 25, 22, 23, 34, 35, 26, 41, 37|24, 20, 35, 26, 22, 31, 30, 29, 53|27, 19, 21, 35, 25, 34, 45, 35, 34|31, 17, 32, 38, 40, 29, 28, 43, 46|24, 26, 31, 37, 30, 24, 42, 28, 33|29, 29, 35, 23, 29, 23, 39, 28, 37|21, 24, 26, 30, 35, 35, 28, 40, 32|23, 32, 24, 37, 36, 36, 25, 48, 47|28, 31, 24, 34, 23, 43, 47, 38, 42|31, 27, 34, 35, 23, 33, 35, 51, 38|21, 32, 19, 35, 27, 33, 45, 49, 31|21, 29, 27, 29, 29, 42, 47, 30, 38|27, 18, 24, 39, 37, 42, 25, 33, 27|26, 21, 26, 36, 32, 32, 42, 34, 44|22, 30, 37, 21, 27, 45, 36, 45, 49|24, 22, 26, 30, 35, 31, 29, 31, 40|21, 20, 30, 36, 29, 25, 37, 47, 48|22, 17, 22, 38, 32, 39, 25, 33, 30|23, 17, 33, 26, 43, 28, 24, 49, 34|26, 31, 25, 22, 28, 42, 40, 42, 43|26, 32, 33, 23, 35, 35, 40, 42, 27|23, 21, 34, 33, 28, 45, 42, 50, 52|20, 17, 36, 35, 43, 26, 31, 45, 41|27, 28, 23, 38, 42, 39, 36, 34, 29|19, 21, 22, 27, 29, 34, 24, 45, 31|23, 20, 31, 38, 41, 36, 32, 39, 48|23, 19, 25, 34, 31, 40, 27, 49, 49|20, 32, 22, 27, 24, 38, 44, 32, 30|23, 29, 22, 23, 24, 33, 25, 40, 42|24, 25, 33, 27, 41, 25, 41, 27, 27|30, 24, 19, 38, 28, 45, 31, 49, 35|22, 28, 37, 26, 23, 33, 35, 42, 32|] ;
deadline = [33, 33, 33, 33, 33, 33, 33, 33, 33, 33, 33, 33, 33, 33, 33, 33, 33, 33, 33, 33, 33, 33, 33, 33, 33, 33, 33, 33, 33, 33, 33, 33, 33, 33, 33, 33, 33, 33, 33, 33, 33, 33, 33, 33, 33] ;
release = [0, 0, 0, 0, 0, 0, 0, 0, 0, 0, 0, 0, 0, 0, 0, 0, 0, 0, 0, 0, 0, 0, 0, 0, 0, 0, 0, 0, 0, 0, 0, 0, 0, 0, 0, 0, 0, 0, 0, 0, 0, 0, 0, 0, 0] ;
resource = [|1, 1, 1, 1, 1, 1, 1, 1, 1|2, 2, 2, 2, 2, 2, 2, 2, 2|6, 6, 6, 6, 6, 6, 6, 6, 6|8, 8, 8, 8, 8, 8, 8, 8, 8|2, 2, 2, 2, 2, 2, 2, 2, 2|7, 7, 7, 7, 7, 7, 7, 7, 7|5, 5, 5, 5, 5, 5, 5, 5, 5|5, 5, 5, 5, 5, 5, 5, 5, 5|3, 3, 3, 3, 3, 3, 3, 3, 3|7, 7, 7, 7, 7, 7, 7, 7, 7|5, 5, 5, 5, 5, 5, 5, 5, 5|4, 4, 4, 4, 4, 4, 4, 4, 4|5, 5, 5, 5, 5, 5, 5, 5, 5|3, 3, 3, 3, 3, 3, 3, 3, 3|6, 6, 6, 6, 6, 6, 6, 6, 6|9, 9, 9, 9, 9, 9, 9, 9, 9|5, 5, 5, 5, 5, 5, 5, 5, 5|8, 8, 8, 8, 8, 8, 8, 8, 8|3, 3, 3, 3, 3, 3, 3, 3, 3|5, 5, 5, 5, 5, 5, 5, 5, 5|8, 8, 8, 8, 8, 8, 8, 8, 8|7, 7, 7, 7, 7, 7, 7, 7, 7|1, 1, 1, 1, 1, 1, 1, 1, 1|8, 8, 8, 8, 8, 8, 8, 8, 8|9, 9, 9, 9, 9, 9, 9, 9, 9|4, 4, 4, 4, 4, 4, 4, 4, 4|6, 6, 6, 6, 6, 6, 6, 6, 6|3, 3, 3, 3, 3, 3, 3, 3, 3|7, 7, 7, 7, 7, 7, 7, 7, 7|5, 5, 5, 5, 5, 5, 5, 5, 5|6, 6, 6, 6, 6, 6, 6, 6, 6|7, 7, 7, 7, 7, 7, 7, 7, 7|5, 5, 5, 5, 5, 5, 5, 5, 5|9, 9, 9, 9, 9, 9, 9, 9, 9|4, 4, 4, 4, 4, 4, 4, 4, 4|6, 6, 6, 6, 6, 6, 6, 6, 6|6, 6, 6, 6, 6, 6, 6, 6, 6|8, 8, 8, 8, 8, 8, 8, 8, 8|8, 8, 8, 8, 8, 8, 8, 8, 8|7, 7, 7, 7, 7, 7, 7, 7, 7|5, 5, 5, 5, 5, 5, 5, 5, 5|3, 3, 3, 3, 3, 3, 3, 3, 3|8, 8, 8, 8, 8, 8, 8, 8, 8|7, 7, 7, 7, 7, 7, 7, 7, 7|3, 3, 3, 3, 3, 3, 3, 3, 3|] ;
capacities = [10, 10, 10, 10, 10, 10, 10, 10, 10] ;
